p cnf 59 37
-13 20 2 0
36 -3 -33 0
2 5 -15 0
-44 53 24 0
16 -45 -43 0
-54 -13 58 0
-59 -2 23 0
2 -1 -58 0
34 -23 -5 0
39 -37 3 0
-15 -23 26 0
-3 -38 -8 0
22 2 -14 0
-47 2 56 0
52 36 -21 0
-31 -58 12 0
-3 -11 -7 0
-13 17 22 0
1 -33 40 0
-5 17 -3 0
43 4 -1 0
7 5 25 0
-6 -1 -25 0
3 50 9 0
4 2 31 0
-9 -1 13 0
-24 49 19 0
56 34 22 0
-7 -2 -29 0
-1 -10 -7 0
22 3 5 0
3 -1 6 0
12 13 -1 0
-30 -4 33 0
-14 -6 -33 0
40 -32 -5 0
35 -3 50 0
